(set-logic ALL)
(set-option :produce-models true)
(declare-sort BoundSet 0)
(declare-sort UnboundSet 0)
(declare-fun IsRed (BoundSet) Bool)
(declare-fun Jumps (BoundSet) Bool)
(declare-fun Catches (BoundSet BoundSet) Bool)
(assert (not (=> (and (exists ((a BoundSet)) (exists ((b BoundSet)) (exists ((c BoundSet)) (and (IsRed a) (and (Jumps a) (Catches b c)))))) (forall ((g BoundSet)) (forall ((h BoundSet)) (forall ((f BoundSet)) (=> (IsRed f) (Catches g h)))))) (exists ((e BoundSet)) (exists ((d BoundSet)) (Catches d e))))))
(check-sat)
(get-model)